BAYES
196
2 2 2 2 2 2 2 2 2 2 2 2 2 2 2 2 2 2 2 2 2 2 2 2 2 2 2 2 2 2 2 2 2 2 2 2 2 2 2 2 2 2 2 2 2 2 2 2 2 2 2 2 2 2 2 2 2 2 2 2 2 2 2 2 2 2 2 2 2 2 2 2 2 2 2 2 2 2 2 2 2 2 2 2 2 2 2 2 2 2 2 2 2 2 2 2 2 2 2 2 2 2 2 2 2 2 2 2 2 2 2 2 2 2 2 2 2 2 2 2 2 2 2 2 2 2 2 2 2 2 2 2 2 2 2 2 2 2 2 2 2 2 2 2 2 2 2 2 2 2 2 2 2 2 2 2 2 2 2 2 2 2 2 2 2 2 2 2 2 2 2 2 2 2 2 2 2 2 2 2 2 2 2 2 2 2 2 2 2 2 2 2 2 2 2 2
196
3 1 14 0
3 2 15 1
3 3 16 2
3 4 17 3
3 5 18 4
3 6 19 5
3 7 20 6
3 8 21 7
3 9 22 8
3 10 23 9
3 11 24 10
3 12 25 11
3 13 26 12
2 14 13
3 15 28 14
3 16 29 15
3 17 30 16
3 18 31 17
3 19 32 18
3 20 33 19
3 21 34 20
3 22 35 21
3 23 36 22
3 24 37 23
3 25 38 24
3 26 39 25
3 27 40 26
2 28 27
3 29 42 28
3 30 43 29
3 31 44 30
3 32 45 31
3 33 46 32
3 34 47 33
3 35 48 34
3 36 49 35
3 37 50 36
3 38 51 37
3 39 52 38
3 40 53 39
3 41 54 40
2 42 41
3 43 56 42
3 44 57 43
3 45 58 44
3 46 59 45
3 47 60 46
3 48 61 47
3 49 62 48
3 50 63 49
3 51 64 50
3 52 65 51
3 53 66 52
3 54 67 53
3 55 68 54
2 56 55
3 57 70 56
3 58 71 57
3 59 72 58
3 60 73 59
3 61 74 60
3 62 75 61
3 63 76 62
3 64 77 63
3 65 78 64
3 66 79 65
3 67 80 66
3 68 81 67
3 69 82 68
2 70 69
3 71 84 70
3 72 85 71
3 73 86 72
3 74 87 73
3 75 88 74
3 76 89 75
3 77 90 76
3 78 91 77
3 79 92 78
3 80 93 79
3 81 94 80
3 82 95 81
3 83 96 82
2 84 83
3 85 98 84
3 86 99 85
3 87 100 86
3 88 101 87
3 89 102 88
3 90 103 89
3 91 104 90
3 92 105 91
3 93 106 92
3 94 107 93
3 95 108 94
3 96 109 95
3 97 110 96
2 98 97
3 99 112 98
3 100 113 99
3 101 114 100
3 102 115 101
3 103 116 102
3 104 117 103
3 105 118 104
3 106 119 105
3 107 120 106
3 108 121 107
3 109 122 108
3 110 123 109
3 111 124 110
2 112 111
3 113 126 112
3 114 127 113
3 115 128 114
3 116 129 115
3 117 130 116
3 118 131 117
3 119 132 118
3 120 133 119
3 121 134 120
3 122 135 121
3 123 136 122
3 124 137 123
3 125 138 124
2 126 125
3 127 140 126
3 128 141 127
3 129 142 128
3 130 143 129
3 131 144 130
3 132 145 131
3 133 146 132
3 134 147 133
3 135 148 134
3 136 149 135
3 137 150 136
3 138 151 137
3 139 152 138
2 140 139
3 141 154 140
3 142 155 141
3 143 156 142
3 144 157 143
3 145 158 144
3 146 159 145
3 147 160 146
3 148 161 147
3 149 162 148
3 150 163 149
3 151 164 150
3 152 165 151
3 153 166 152
2 154 153
3 155 168 154
3 156 169 155
3 157 170 156
3 158 171 157
3 159 172 158
3 160 173 159
3 161 174 160
3 162 175 161
3 163 176 162
3 164 177 163
3 165 178 164
3 166 179 165
3 167 180 166
2 168 167
3 169 182 168
3 170 183 169
3 171 184 170
3 172 185 171
3 173 186 172
3 174 187 173
3 175 188 174
3 176 189 175
3 177 190 176
3 178 191 177
3 179 192 178
3 180 193 179
3 181 194 180
2 182 181
2 196 182
2 197 183
2 198 184
2 199 185
2 200 186
2 201 187
2 202 188
2 203 189
2 204 190
2 205 191
2 206 192
2 207 193
2 208 194
1  195
8
1 0 0 1 0 1 1 0
8
0 1 1 0 1 0 1 0
8
1 0 0 1 1 0 1 0
8
1 0 1 0 1 0 0 1
8
1 0 0 1 1 0 1 0
8
1 0 0 1 0 1 1 0
8
1 0 1 0 1 0 0 1
8
1 0 0 1 0 1 1 0
8
0.2889389256212625 0.7110610743787376 0.771882891291273 0.22811710870872698 0.39677279896904166 0.6032272010309584 0.47009742110013947 0.5299025788998606
8
0 1 0 1 1 0 1 0
8
0 1 1 0 1 0 1 0
8
0 1 0 1 1 0 1 0
8
1 0 0 1 1 0 0 1
4
0 1 1 0
8
0.34065107982024745 0.6593489201797527 0.4737113335854911 0.5262886664145089 0.3768628363697625 0.6231371636302374 0.5406884224195934 0.4593115775804067
8
0 1 1 0 1 0 0 1
8
0.5202462783001073 0.4797537216998928 0.37376406310222854 0.6262359368977715 0.5980247557694125 0.4019752442305874 0.4682098029491153 0.5317901970508848
8
0 1 0 1 0 1 0 1
8
1 0 1 0 1 0 0 1
8
0.21727119270437087 0.7827288072956291 0.4512727858258644 0.5487272141741356 0.04394740208885382 0.9560525979111462 0.2122340604747281 0.7877659395252719
8
0 1 0 1 0 1 0 1
8
1 0 0 1 0 1 0 1
8
1 0 1 0 0 1 0 1
8
0.47563838364568645 0.5243616163543134 0.6165552687755768 0.38344473122442324 0.8705089841374214 0.1294910158625786 0.8740241626113097 0.12597583738869034
8
0 1 0 1 1 0 1 0
8
0 1 0 1 1 0 0 1
8
1 0 0 1 0 1 0 1
4
1 0 1 0
8
0.4903156783879783 0.5096843216120217 0.7140973988479717 0.28590260115202826 0.44420628899830655 0.5557937110016935 0.2256638726408436 0.7743361273591564
8
1 0 0 1 0 1 1 0
8
1 0 0 1 1 0 0 1
8
1 0 0 1 0 1 1 0
8
0 1 0 1 1 0 0 1
8
0 1 0 1 0 1 1 0
8
1 0 1 0 0 1 0 1
8
1 0 1 0 0 1 1 0
8
0 1 0 1 1 0 1 0
8
1 0 1 0 1 0 0 1
8
0 1 1 0 1 0 0 1
8
1 0 1 0 0 1 0 1
8
1 0 0 1 1 0 1 0
4
1 0 0 1
8
0.7469240272960906 0.2530759727039093 0.27585434076247894 0.724145659237521 0.43218251140178804 0.5678174885982119 0.5477802048324061 0.45221979516759386
8
1 0 1 0 0 1 1 0
8
1 0 0 1 1 0 1 0
8
0 1 1 0 1 0 1 0
8
0 1 0 1 1 0 1 0
8
1 0 0 1 0 1 1 0
8
1 0 0 1 1 0 1 0
8
0.4562874944212927 0.5437125055787073 0.8377203851829541 0.16227961481704592 0.4042728861645394 0.5957271138354606 0.2734808549788965 0.7265191450211035
8
0 1 1 0 0 1 0 1
8
0 1 0 1 0 1 0 1
8
0 1 0 1 1 0 1 0
8
0.017960809790164216 0.9820391902098358 0.5378218143290399 0.4621781856709601 0.41305721267056494 0.5869427873294351 0.9691279025088502 0.03087209749114987
8
1 0 0 1 1 0 1 0
4
1 0 0 1
8
0 1 0 1 1 0 1 0
8
1 0 0 1 1 0 1 0
8
0 1 1 0 1 0 0 1
8
0.4792412434801884 0.5207587565198117 0.9654560968410458 0.03454390315895417 0.27257383479299596 0.7274261652070041 0.21493162920255324 0.7850683707974466
8
1 0 0 1 1 0 1 0
8
1 0 1 0 1 0 0 1
8
1 0 1 0 0 1 1 0
8
0 1 1 0 0 1 0 1
8
0 1 1 0 1 0 1 0
8
0 1 1 0 1 0 0 1
8
1 0 1 0 1 0 0 1
8
0 1 1 0 1 0 1 0
8
1 0 1 0 0 1 0 1
4
1 0 1 0
8
0 1 1 0 1 0 1 0
8
0.5461134328096782 0.45388656719032183 0.5450519597512778 0.4549480402487221 0.5071957452410996 0.4928042547589005 0.4724335130749759 0.5275664869250242
8
0 1 0 1 1 0 0 1
8
0 1 1 0 1 0 0 1
8
1 0 1 0 1 0 1 0
8
0 1 0 1 1 0 0 1
8
1 0 0 1 1 0 1 0
8
1 0 0 1 0 1 1 0
8
1 0 0 1 1 0 1 0
8
1 0 0 1 1 0 1 0
8
1 0 0 1 1 0 1 0
8
1 0 1 0 1 0 1 0
8
0 1 1 0 0 1 0 1
4
1 0 0 1
8
0 1 0 1 0 1 1 0
8
1 0 1 0 1 0 0 1
8
1 0 1 0 1 0 0 1
8
1 0 0 1 0 1 1 0
8
1 0 0 1 1 0 1 0
8
1 0 0 1 1 0 0 1
8
0 1 1 0 1 0 0 1
8
1 0 1 0 1 0 0 1
8
1 0 1 0 0 1 0 1
8
1 0 0 1 0 1 1 0
8
0.7019962662432648 0.29800373375673517 0.6193251446042083 0.38067485539579166 0.6600397630514734 0.33996023694852673 0.5875658240858481 0.4124341759141518
8
1 0 1 0 0 1 0 1
8
0 1 1 0 1 0 1 0
4
0 1 1 0
8
0.001748639962364321 0.9982513600376357 0.29947097535010725 0.7005290246498928 0.6870733941654718 0.31292660583452825 0.5195407559582724 0.4804592440417276
8
0 1 0 1 0 1 1 0
8
0 1 0 1 0 1 1 0
8
1 0 0 1 1 0 0 1
8
0 1 1 0 1 0 0 1
8
1 0 0 1 1 0 0 1
8
1 0 1 0 1 0 0 1
8
1 0 0 1 1 0 0 1
8
1 0 1 0 1 0 1 0
8
1 0 0 1 0 1 1 0
8
1 0 1 0 0 1 0 1
8
1 0 1 0 1 0 0 1
8
0.3944951407673995 0.6055048592326006 0.5701530166880052 0.42984698331199467 0.47438013793368894 0.5256198620663111 0.25932510207943593 0.7406748979205641
4
1 0 0 1
8
1 0 1 0 0 1 0 1
8
1 0 0 1 0 1 1 0
8
0 1 0 1 0 1 0 1
8
1 0 1 0 0 1 0 1
8
1 0 1 0 1 0 1 0
8
0 1 1 0 0 1 0 1
8
1 0 1 0 1 0 0 1
8
0 1 1 0 0 1 1 0
8
0 1 0 1 0 1 0 1
8
0 1 1 0 1 0 1 0
8
1 0 0 1 0 1 1 0
8
1 0 0 1 0 1 0 1
8
0 1 1 0 0 1 1 0
4
0.49329724476879305 0.5067027552312069 0.06397924198029149 0.9360207580197085
8
1 0 1 0 1 0 0 1
8
0 1 1 0 1 0 1 0
8
0 1 1 0 1 0 1 0
8
0.9821643217554411 0.017835678244558936 0.050672345096967226 0.9493276549030327 0.5815609375432262 0.4184390624567738 0.37181229214784706 0.6281877078521529
8
1 0 0 1 1 0 0 1
8
0 1 0 1 1 0 1 0
8
0 1 1 0 0 1 1 0
8
1 0 0 1 0 1 0 1
8
1 0 0 1 1 0 1 0
8
1 0 1 0 1 0 0 1
8
1 0 1 0 1 0 1 0
8
1 0 1 0 1 0 0 1
8
0 1 0 1 1 0 0 1
4
1 0 0 1
8
1 0 0 1 0 1 0 1
8
1 0 0 1 1 0 1 0
8
0 1 1 0 1 0 1 0
8
0 1 1 0 1 0 1 0
8
0 1 0 1 0 1 0 1
8
0 1 0 1 1 0 0 1
8
1 0 0 1 0 1 0 1
8
1 0 1 0 0 1 0 1
8
1 0 0 1 0 1 1 0
8
1 0 0 1 1 0 1 0
8
0 1 0 1 1 0 1 0
8
1 0 1 0 0 1 0 1
8
1 0 1 0 1 0 1 0
4
0 1 1 0
8
1 0 0 1 0 1 1 0
8
0 1 0 1 1 0 0 1
8
1 0 0 1 1 0 0 1
8
0 1 1 0 1 0 1 0
8
1 0 0 1 1 0 0 1
8
1 0 1 0 1 0 0 1
8
1 0 0 1 0 1 0 1
8
0.42887696202619635 0.5711230379738037 0.6520773091779436 0.3479226908220564 0.16835637322278857 0.8316436267772114 0.5538903618870287 0.4461096381129713
8
1 0 0 1 1 0 0 1
8
0 1 1 0 1 0 1 0
8
0 1 1 0 0 1 1 0
8
0 1 1 0 0 1 1 0
8
0.6608415527236275 0.3391584472763725 0.42276459440981445 0.5772354055901856 0.3420324472804597 0.6579675527195402 0.27867459405331196 0.721325405946688
4
0 1 1 0
8
1 0 0 1 0 1 1 0
8
0 1 0 1 0 1 1 0
8
0 1 1 0 1 0 0 1
8
1 0 0 1 0 1 0 1
8
0.16491107866013374 0.8350889213398662 0.6822849253934223 0.3177150746065777 0.7537854747125816 0.24621452528741836 0.2649327703828162 0.7350672296171838
8
0 1 0 1 0 1 0 1
8
0 1 1 0 0 1 0 1
8
0.6523796550146509 0.3476203449853491 0.6764208415573103 0.32357915844268975 0.3737884440248334 0.6262115559751666 0.5261389120388534 0.4738610879611466
8
0 1 0 1 0 1 0 1
8
0 1 1 0 1 0 0 1
8
1 0 1 0 0 1 1 0
8
1 0 1 0 0 1 0 1
8
1 0 0 1 0 1 1 0
4
0 1 1 0
4
0 1 1 0
4
1 0 0 1
4
0 1 1 0
4
1 0 1 0
4
0 1 0 1
4
0 1 1 0
4
0 1 0 1
4
0 1 1 0
4
1 0 0 1
4
1 0 0 1
4
1 0 1 0
4
1 0 1 0
4
0 1 0 1
2
0 1
